(declare-const a Real)
(declare-const b Real)
(declare-const c Real)
(assert (<= (+ (pow a 2) (pow b 2) (pow c 2) (* a b) (* a c) (* b c)) 2))
(assert (> a 0))
(assert (> b 0))
(assert (> c 0))
(assert (not (<= (+ 6 (* -4 (pow (+ b c) -1) (pow (+ (* (pow (+ a b) -2) (+ 1 (* a b))) (* (pow (+ a c) -2) (+ 1 (* a c))) (* b c (pow (+ a b) -2) (+ 1 (* a b))) (* b c (pow (+ a c) -2) (+ 1 (* a c)))) (/ 1 2)))) 0)))
(check-sat)
(get-model)
(exit)